c uprop, v00.0, 
c reading from data/prog122.c.cnf
c done reading: 0.00338
p cnf 126 527
-74 -95 0
-79 -95 0
74 79 95 0
74 79 -102 0
-74 -79 -102 0
-74 79 102 0
74 -79 102 0
-83 95 0
-83 -85 0
83 85 -95 0
85 -91 -95 0
-85 -91 95 0
85 91 95 0
-85 91 -95 0
83 -94 0
-94 -96 0
-83 94 96 0
-83 96 -99 0
83 -96 -99 0
83 96 99 0
-83 -96 99 0
94 -100 0
-100 -103 0
-94 100 103 0
-77 -94 103 0
-77 94 -103 0
77 94 103 0
77 -94 -103 0
-72 100 0
-72 -81 0
72 81 -100 0
-71 81 -100 0
-71 -81 100 0
71 81 100 0
71 -81 -100 0
-69 72 0
-69 -88 0
69 -72 88 0
-68 -72 88 0
-68 72 -88 0
68 72 88 0
68 -72 -88 0
-66 69 0
-66 -92 0
66 -69 92 0
-65 -69 92 0
-65 69 -92 0
65 69 92 0
65 -69 -92 0
-63 96 0
-63 74 0
63 -74 -96 0
-62 -74 -96 0
-62 74 96 0
62 74 -96 0
62 -74 96 0
60 -79 -103 0
60 -63 -103 0
60 -63 -79 0
-60 79 103 0
-60 63 103 0
-60 63 79 0
-59 -60 103 0
-59 -60 79 0
-59 -60 63 0
59 60 -103 0
59 60 -79 0
59 60 -63 0
59 -63 -79 -103 0
-59 63 79 103 0
58 -81 -85 0
58 -60 -81 0
58 -60 -85 0
-58 81 85 0
-58 60 81 0
-58 60 85 0
-57 -58 81 0
-57 -58 85 0
-57 -58 60 0
57 58 -81 0
57 58 -85 0
57 58 -60 0
57 -60 -81 -85 0
-57 60 81 85 0
56 -88 -96 0
56 -58 -88 0
56 -58 -96 0
-56 88 96 0
-56 58 88 0
-56 58 96 0
-56 88 -105 0
-56 96 -105 0
-56 58 -105 0
56 -88 105 0
56 -96 105 0
56 -58 105 0
-58 -88 -96 105 0
58 88 96 -105 0
-92 -103 106 0
-56 -92 106 0
-56 -103 106 0
92 103 -106 0
56 92 -106 0
56 103 -106 0
92 -106 -107 0
103 -106 -107 0
56 -106 -107 0
-92 106 107 0
-103 106 107 0
-56 106 107 0
-56 -92 -103 107 0
56 92 103 -107 0
81 -108 0
106 -108 0
-81 -106 108 0
-81 -106 -109 0
81 106 -109 0
-81 106 109 0
81 -106 109 0
88 -110 0
108 -110 0
-88 -108 110 0
-75 -88 -108 0
-75 88 108 0
75 -88 108 0
75 88 -108 0
-80 92 0
-80 110 0
80 -92 -110 0
-86 -92 -110 0
-86 92 110 0
86 -92 110 0
86 92 -110 0
-74 -97 0
-79 -97 0
74 79 97 0
74 79 -104 0
-74 -79 -104 0
-74 79 104 0
74 -79 104 0
-82 97 0
-82 -85 0
82 85 -97 0
85 -89 -97 0
-85 -89 97 0
85 89 97 0
-85 89 -97 0
82 -93 0
-62 -93 0
62 -82 93 0
62 -82 -111 0
-62 82 -111 0
62 82 111 0
-62 -82 111 0
93 -112 0
-59 -112 0
59 -93 112 0
59 -93 -113 0
-59 93 -113 0
59 93 113 0
-59 -93 113 0
112 -114 0
-57 -114 0
57 -112 114 0
57 -112 -115 0
-57 112 -115 0
57 112 115 0
-57 -112 115 0
114 -116 0
-105 -116 0
105 -114 116 0
105 -114 -117 0
-105 114 -117 0
105 114 117 0
-105 -114 117 0
116 -118 0
-107 -118 0
107 -116 118 0
107 -116 -119 0
-107 116 -119 0
107 116 119 0
-107 -116 119 0
118 -120 0
-109 -120 0
109 -118 120 0
109 -118 -121 0
-109 118 -121 0
109 118 121 0
-109 -118 121 0
120 -122 0
-75 -122 0
75 -120 122 0
75 -120 -123 0
-75 120 -123 0
75 120 123 0
-75 -120 123 0
122 -124 0
-86 -124 0
86 -122 124 0
86 -122 -125 0
-86 122 -125 0
86 122 125 0
-86 -122 125 0
124 -126 0
-80 -126 0
80 -124 126 0
-55 80 -124 0
-55 -80 124 0
55 80 124 0
55 -80 -124 0
-52 -54 0
52 54 0
-50 -51 0
50 51 0
-47 -49 0
47 49 0
-45 -46 0
45 46 0
-42 -44 0
42 44 0
-40 -41 0
40 41 0
-39 51 0
39 -51 0
-38 -51 0
38 51 0
37 -39 -49 0
-37 49 0
-37 39 49 0
-37 39 0
-36 -37 49 0
-36 -37 0
-36 -37 39 0
36 37 -49 0
36 37 -39 0
-36 39 49 0
35 -46 -54 0
35 -37 -46 0
35 -37 -54 0
-35 46 54 0
-35 37 46 0
-35 37 54 0
-34 -35 46 0
-34 -35 54 0
-34 -35 37 0
34 35 -46 0
34 35 -54 0
34 35 -37 0
34 -37 -46 -54 0
-34 37 46 54 0
33 -44 -51 0
33 -35 -44 0
33 -35 -51 0
-33 44 51 0
-33 35 44 0
-33 35 51 0
-32 -33 44 0
-32 -33 51 0
-32 -33 35 0
32 33 -44 0
32 33 -51 0
32 33 -35 0
32 -35 -44 -51 0
-32 35 44 51 0
31 -41 -49 0
31 -33 -41 0
31 -33 -49 0
-31 41 49 0
-31 33 41 0
-31 33 49 0
-30 -31 41 0
-30 -31 49 0
-30 -31 33 0
30 31 -41 0
30 31 -49 0
30 31 -33 0
30 -33 -41 -49 0
-30 33 41 49 0
-29 46 0
-29 31 0
29 -31 -46 0
-28 -31 -46 0
-28 31 46 0
28 31 -46 0
28 -31 46 0
-27 44 0
-27 29 0
27 -29 -44 0
-26 -29 -44 0
-26 29 44 0
26 29 -44 0
26 -29 44 0
-25 41 0
-25 27 0
25 -27 -41 0
-24 -27 -41 0
-24 27 41 0
24 27 -41 0
24 -27 41 0
-23 36 0
23 -36 0
-22 -36 0
22 36 0
21 -23 -34 0
-21 34 0
-21 23 34 0
-21 23 0
-20 -21 34 0
-20 -21 0
-20 -21 23 0
20 21 -34 0
20 21 -23 0
-20 23 34 0
19 -32 -54 0
19 -21 -32 0
19 -21 -54 0
-19 32 54 0
-19 21 32 0
-19 21 54 0
-18 -19 32 0
-18 -19 54 0
-18 -19 21 0
18 19 -32 0
18 19 -54 0
18 19 -21 0
18 -21 -32 -54 0
-18 21 32 54 0
17 -30 -51 0
17 -19 -30 0
17 -19 -51 0
-17 30 51 0
-17 19 30 0
-17 19 51 0
-16 -17 30 0
-16 -17 51 0
-16 -17 19 0
16 17 -30 0
16 17 -51 0
16 17 -19 0
16 -19 -30 -51 0
-16 19 30 51 0
15 -28 -49 0
15 -17 -28 0
15 -17 -49 0
-15 28 49 0
-15 17 28 0
-15 17 49 0
-14 -15 28 0
-14 -15 49 0
-14 -15 17 0
14 15 -28 0
14 15 -49 0
14 15 -17 0
14 -17 -28 -49 0
-14 17 28 49 0
13 -26 -46 0
13 -15 -26 0
13 -15 -46 0
-13 26 46 0
-13 15 26 0
-13 15 46 0
-12 -13 26 0
-12 -13 46 0
-12 -13 15 0
12 13 -26 0
12 13 -46 0
12 13 -15 0
12 -15 -26 -46 0
-12 15 26 46 0
11 -24 -44 0
11 -13 -24 0
11 -13 -44 0
-11 24 44 0
-11 13 24 0
-11 13 44 0
-11 24 -73 0
-11 44 -73 0
-11 13 -73 0
11 -24 73 0
11 -44 73 0
11 -13 73 0
-13 -24 -44 73 0
13 24 44 -73 0
-25 -41 78 0
-11 -25 78 0
-11 -41 78 0
25 41 -78 0
11 25 -78 0
11 41 -78 0
25 -78 -84 0
41 -78 -84 0
11 -78 -84 0
-25 78 84 0
-41 78 84 0
-11 78 84 0
-11 -25 -41 84 0
11 25 41 -84 0
-54 -87 0
54 87 0
-10 -38 0
10 38 0
-22 -53 0
22 53 0
-20 -48 0
20 48 0
-18 -43 0
18 43 0
-9 -16 0
9 16 0
-8 -14 0
8 14 0
-7 -12 0
7 12 0
-6 -73 0
6 73 0
-5 -84 0
5 84 0
-4 -78 0
4 78 0
-3 74 0
-3 54 0
3 -54 -74 0
54 -74 0
-54 74 0
2 -38 -79 0
2 -3 -79 0
2 -3 -38 0
-2 38 79 0
-2 3 79 0
-2 3 38 0
2 -79 0
2 -38 0
2 -3 0
-3 -38 -79 0
1 -22 -85 0
1 -2 -85 0
1 -2 -22 0
-1 22 85 0
-1 2 85 0
-1 2 22 0
-1 85 0
-1 22 0
-1 2 0
2 22 85 0
-20 -62 101 0
-1 -62 101 0
-1 -20 101 0
20 62 -101 0
1 62 -101 0
1 20 -101 0
-62 101 0
-20 101 0
-1 101 0
-1 -20 -62 0
-18 -59 90 0
-59 90 -101 0
-18 90 -101 0
18 59 -90 0
59 -90 101 0
18 -90 101 0
-59 90 0
-18 90 0
90 -101 0
-18 -59 -101 0
-16 -57 98 0
-57 -90 98 0
-16 -90 98 0
16 57 -98 0
57 90 -98 0
16 90 -98 0
57 -98 0
16 -98 0
90 -98 0
16 57 90 0
-14 76 -105 0
76 -98 -105 0
-14 76 -98 0
14 -76 105 0
-76 98 105 0
14 -76 98 0
76 -105 0
-14 76 0
76 -98 0
-14 -98 -105 0
-12 70 -107 0
70 -76 -107 0
-12 70 -76 0
12 -70 107 0
-70 76 107 0
12 -70 76 0
70 -107 0
-12 70 0
70 -76 0
-12 -76 -107 0
67 -73 -109 0
67 -70 -109 0
67 -70 -73 0
-67 73 109 0
-67 70 109 0
-67 70 73 0
67 -109 0
67 -73 0
67 -70 0
-70 -73 -109 0
64 -75 -84 0
64 -67 -75 0
64 -67 -84 0
-64 75 84 0
-64 67 75 0
-64 67 84 0
64 -75 0
64 -84 0
64 -67 0
-67 -75 -84 0
61 -78 -86 0
61 -64 -86 0
61 -64 -78 0
-61 78 86 0
-61 64 86 0
-61 64 78 0
61 -86 0
61 -78 0
61 -64 0
-64 -78 -86 0
-61 -80 0
61 -80 0
-61 80 0
